p cnf 61 219
1 -2 -3 0
-1 2 -3 0
1 2 3 0
-1 -2 3 0
-5 3 0
-5 -4 0
-3 4 5 0
1 6 0
-1 6 0
6 3 -7 0
-6 -3 -7 0
6 -3 7 0
-6 3 7 0
10 -6 0
10 -9 0
6 9 -10 0
-11 8 0
-11 10 0
-8 -10 11 0
7 -11 -12 0
-7 11 -12 0
7 11 12 0
-7 -11 12 0
-2 6 -13 0
2 -6 -13 0
-2 -6 13 0
2 6 13 0
-14 13 0
-14 -9 0
-13 9 14 0
16 15 0
16 3 0
-15 -3 -16 0
18 15 0
18 -17 0
-15 17 -18 0
-19 -16 0
-19 -18 0
16 18 19 0
-14 -19 -20 0
14 19 -20 0
-14 19 20 0
14 -19 20 0
21 12 0
21 20 0
-12 -20 -21 0
-22 -5 0
-22 21 0
5 -21 22 0
24 -7 0
24 2 0
7 -2 -24 0
10 24 -25 0
-10 -24 -25 0
10 -24 25 0
-10 24 25 0
-26 25 0
-26 -6 0
-25 6 26 0
27 6 0
27 26 0
-6 -26 -27 0
4 15 -28 0
-4 -15 -28 0
4 -15 28 0
-4 15 28 0
27 28 -29 0
-27 -28 -29 0
27 -28 29 0
-27 28 29 0
-30 -23 0
-30 29 0
23 -29 30 0
31 -15 0
31 -28 0
15 28 -31 0
-32 31 0
-32 6 0
-31 -6 32 0
34 -1 0
34 33 0
1 -33 -34 0
35 34 0
35 -28 0
-34 28 -35 0
36 -32 0
36 -35 0
32 35 -36 0
37 30 0
37 -36 0
-30 36 -37 0
38 -6 0
38 2 0
6 -2 -38 0
-39 3 0
-39 13 0
-3 -13 39 0
-38 39 -40 0
38 -39 -40 0
-38 -39 40 0
38 39 40 0
37 40 -41 0
-37 -40 -41 0
37 -40 41 0
-37 40 41 0
-22 -41 -42 0
22 41 -42 0
-22 41 42 0
22 -41 42 0
-44 43 0
-44 3 0
-43 -3 44 0
45 -44 0
45 3 0
44 -3 -45 0
-46 -15 0
-46 -45 0
15 45 46 0
47 -2 0
47 43 0
2 -43 -47 0
-48 -47 0
-48 -7 0
47 7 48 0
-49 33 0
-49 31 0
-33 -31 49 0
50 49 0
50 35 0
-49 -35 -50 0
-51 49 0
-51 1 0
-49 -1 51 0
52 -50 0
52 -51 0
50 51 -52 0
-53 -9 0
-53 -31 0
9 31 53 0
53 -47 -54 0
-53 47 -54 0
53 47 54 0
-53 -47 54 0
-49 -13 -55 0
49 13 -55 0
-49 13 55 0
49 -13 55 0
-56 -55 0
-56 13 0
55 -13 56 0
-57 -54 0
-57 56 0
54 -56 57 0
-52 -57 -58 0
52 57 -58 0
-52 57 58 0
52 -57 58 0
48 -58 -59 0
-48 58 -59 0
48 58 59 0
-48 -58 59 0
46 -59 -60 0
-46 59 -60 0
46 59 60 0
-46 -59 60 0
-61 42 0
-61 -60 0
-42 60 61 0
-40 -57 42 0
-32 56 -1 20 0
-18 -1 -10 -9 52 0
50 21 -49 -31 43 30 0
-49 -20 32 0
59 4 0
13 -26 -23 14 48 -1 0
17 -52 -49 0
36 49 0
-3 4 51 17 20 0
30 -48 37 -31 0
-34 -33 -39 52 0
-34 8 3 0
-5 -6 42 -53 -30 0
50 -6 -43 0
-5 58 -39 -55 -40 0
57 -15 0
14 61 52 0
13 -40 4 -47 17 -54 0
28 -18 0
46 -16 -48 0
17 25 32 0
-3 -32 21 16 -25 -59 0
45 43 60 20 0
24 -34 -45 59 -29 0
17 -32 6 -58 -39 -15 0
-23 -47 22 -18 -7 0
61 39 -42 51 0
33 -55 27 -6 15 -5 0
-17 41 0
29 30 10 0
12 -18 -51 -15 24 0
30 18 3 51 5 -17 0
-21 45 -9 0
25 35 29 -4 0
-53 13 20 0
14 43 47 -16 -2 -10 0
45 -52 54 55 -58 0
-45 12 -24 0
-50 -42 61 -21 0
-40 2 52 -24 -29 3 0
24 1 -56 -46 52 0
-20 36 0
3 -10 25 0
-51 -20 0
-45 14 34 24 0
-30 -25 0
36 -22 57 0
-59 35 20 0
-34 51 -10 -22 41 0
61 0
